
Gurobi 11.0.1 (win64) logging started Thu Mar 14 08:01:54 2024

Set parameter LogFile to value "C:\Projetos\Job_Rotation_Algorithms\Outputs\GurobiLogs\gurobi_log-output-27_ros-c23-CostaMirallesModel-NoExtraConstraint-2.log"
Gurobi Optimizer version 11.0.1 build v11.0.1rc0 (win64 - Windows 10.0 (19045.2))

CPU model: 11th Gen Intel(R) Core(TM) i7-1165G7 @ 2.80GHz, instruction set [SSE2|AVX|AVX2|AVX512]
Thread count: 4 physical cores, 8 logical processors, using up to 1 threads


Gurobi 11.0.1 (win64) logging started Fri Mar 15 00:39:21 2024

Set parameter LogFile to value "C:\Projetos\Job_Rotation_Algorithms\Outputs\GurobiLogs\gurobi_log-output-27_ros-c23-CostaMirallesModel-NoExtraConstraint-2.log"
Gurobi Optimizer version 11.0.1 build v11.0.1rc0 (win64 - Windows 10.0 (19045.2))

CPU model: 11th Gen Intel(R) Core(TM) i7-1165G7 @ 2.80GHz, instruction set [SSE2|AVX|AVX2|AVX512]
Thread count: 4 physical cores, 8 logical processors, using up to 1 threads


Gurobi 11.0.1 (win64) logging started Sat Mar 16 12:25:48 2024

Set parameter LogFile to value "C:\Projetos\Job_Rotation_Algorithms\Outputs\GurobiLogs\gurobi_log-output-27_ros-c23-CostaMirallesModel-NoExtraConstraint-2.log"
Gurobi Optimizer version 11.0.1 build v11.0.1rc0 (win64 - Windows 10.0 (19045.2))

CPU model: 11th Gen Intel(R) Core(TM) i7-1165G7 @ 2.80GHz, instruction set [SSE2|AVX|AVX2|AVX512]
Thread count: 4 physical cores, 8 logical processors, using up to 1 threads


Gurobi 11.0.1 (win64) logging started Sat Mar 16 22:27:36 2024

Set parameter LogFile to value "C:\Projetos\Job_Rotation_Algorithms\Outputs\GurobiLogs\gurobi_log-output-27_ros-c23-CostaMirallesModel-NoExtraConstraint-2.log"
Gurobi Optimizer version 11.0.1 build v11.0.1rc0 (win64 - Windows 10.0 (19045.2))

CPU model: 11th Gen Intel(R) Core(TM) i7-1165G7 @ 2.80GHz, instruction set [SSE2|AVX|AVX2|AVX512]
Thread count: 4 physical cores, 8 logical processors, using up to 1 threads

WLS license 901039 - registered to Bitka Analytics
Optimize a model with 424 rows, 871 columns and 6775 nonzeros
Model fingerprint: 0x2d67d01f
Variable types: 2 continuous, 869 integer (869 binary)
Coefficient statistics:
  Matrix range     [1e+00, 3e+01]
  Objective range  [1e+00, 1e+00]
  Bounds range     [1e+00, 5e+01]
  RHS range        [1e+00, 5e+01]
Presolve removed 57 rows and 165 columns
Presolve time: 0.03s
Presolved: 367 rows, 706 columns, 4909 nonzeros
Variable types: 0 continuous, 706 integer (705 binary)

Root relaxation: objective 5.000000e+01, 337 iterations, 0.00 seconds (0.00 work units)

    Nodes    |    Current Node    |     Objective Bounds      |     Work
 Expl Unexpl |  Obj  Depth IntInf | Incumbent    BestBd   Gap | It/Node Time

     0     0   50.00000    0   11          -   50.00000      -     -    0s
     0     0   50.00000    0  122          -   50.00000      -     -    0s
     0     0   50.00000    0  115          -   50.00000      -     -    0s
     0     0   50.00000    0   45          -   50.00000      -     -    0s
     0     0   50.00000    0   50          -   50.00000      -     -    0s
     0     0   50.00000    0   26          -   50.00000      -     -    0s
     0     0   50.00000    0   53          -   50.00000      -     -    0s
     0     0   50.00000    0   42          -   50.00000      -     -    0s
     0     0   50.00000    0   42          -   50.00000      -     -    0s
     0     2   50.00000    0   42          -   50.00000      -     -    0s
  1448   289   50.00000   10  128          -   50.00000      -   8.5    5s
H 1470   273                      41.0000000   50.00000  22.0%  12.5    5s
H 1470   259                      42.0000000   50.00000  19.0%  12.5    5s
H 1470   246                      44.0000000   50.00000  13.6%  12.5    5s
* 1663   178              27      45.0000000   50.00000  11.1%  24.7    6s

Cutting planes:
  Cover: 17
  Implied bound: 1
  Clique: 20
  MIR: 1
  Flow cover: 8
  GUB cover: 10
  Zero half: 4
  RLT: 4

Explored 1903 nodes (193112 simplex iterations) in 8.21 seconds (8.37 work units)
Thread count was 1 (of 8 available processors)

Solution count 4: 45 44 42 41 

Optimal solution found (tolerance 1.00e-03)
Best objective 4.500000000000e+01, best bound 4.500000000000e+01, gap 0.0000%
